ObjectiveValue = 2432.8;
flow=[(1,6,3)(5,1,0)(5,2,0)(5,6,4)(5,7,0)(5,8,0)(5,9,0)(5,10,0)(5,11,6)(5,12,0)(6,1,1)(6,4,2)(6,10,3)(6,11,25)(10,11,3)(11,6,33)(11,9,4)(11,10,2)(11,12,7)(12,5,4)(12,6,11)(12,10,0)(12,11,12)];
